29
10
0 10 11 12 14 15 18 20 22 23 24
1 12 14 18 19 23 24 25 27
2 10 11 13 14 16 17 18 20 22 23 26
3 10 11 14 15 20 22 24 27 28
4 11 17 20 22 24 25 28
5 11 12 16 17 20 21 23 25 26 27
6 10 12 18 20 24 26 27 28
7 11 24
8 13 15 16 18
9 25
